Test: fpga11_14_uns_rcr.cnf
Options: -no-inverting-opt -sym-var-bump
WARNING: for repeatability, setting FPU to use double precision
============================[ Problem Statistics ]=============================
|                                                                             |
|  Number of symmetries:           46                                         |
|  Number of invertingSyms:         0                                         |
|  Number of variables:           308                                         |
|  Number of clauses:            2030                                         |
|  Parse time:                   0.00 s                                       |
|                                                                             |
============================[ Search Statistics ]==============================
| Conflicts |          ORIGINAL         |          LEARNT          | Progress |
|           |    Vars  Clauses Literals |    Limit  Clauses Lit/Cl |          |
===============================================================================
|       100 |     308     2030     4312 |      744      198     39 |  0.001 % |
|       250 |     308     2030     4312 |      818      455     44 |  0.001 % |
|       475 |     308     2030     4312 |      900      546     49 |  0.001 % |
|       812 |     308     2030     4312 |      990      866     41 |  0.001 % |
|      1318 |     308     2030     4312 |     1089      874     41 |  0.001 % |
|      2077 |     308     2030     4312 |     1198     1078     44 |  0.001 % |
|      3216 |     308     2030     4312 |     1318     1226     39 |  0.001 % |
|      4924 |     308     2030     4312 |     1450     1335     42 |  0.001 % |
===============================================================================
restarts              : 30
conflicts             : 6440           (39266 /sec)
symconflicts          : 1013           (6176 /sec)
decisions             : 10880          (0.00 % random) (66337 /sec)
propagations          : 152160         (927748 /sec)
sympropagations       : 6226           (37961 /sec)
conflict literals     : 301106         (6.11 % deleted)
literals     : 301106         (6.11 % deleted)

HEURISTIC USAGES
random                : 0           
activity w/ lookahead : 0           
activity no lookahead : 0           
original sp           : 10880       
sym count             : 0           

Memory used           : 6.00 MB
CPU time              : 0.16401 s

UNSATISFIABLE
